p cnf 196 1
196 0
w 1 0.0282687
w 2 1 0.208019
w 2 -1 0.491177
w 3 2 0
w 3 -2 1
w 4 3 0.998174
w 4 -3 0.237375
w 5 4 0.974957
w 5 -4 0.0897588
w 6 5 0
w 6 -5 1
w 7 6 1
w 7 -6 0
w 8 7 1
w 8 -7 0
w 9 8 0
w 9 -8 1
w 10 9 1
w 10 -9 0
w 11 10 1
w 11 -10 0
w 12 11 0
w 12 -11 1
w 13 12 1
w 13 -12 0
w 14 13 1
w 14 -13 0
w 15 1 0.20573
w 15 -1 0.395782
w 16 15 2 0.696906
w 16 15 -2 0.471481
w 16 -15 2 0.444979
w 16 -15 -2 0.495378
w 17 16 3 1
w 17 16 -3 1
w 17 -16 3 1
w 17 -16 -3 0
w 18 17 4 0
w 18 17 -4 0
w 18 -17 4 1
w 18 -17 -4 0
w 19 18 5 0.493473
w 19 18 -5 0.0699163
w 19 -18 5 0.811427
w 19 -18 -5 0.858671
w 20 19 6 0
w 20 19 -6 1
w 20 -19 6 0
w 20 -19 -6 1
w 21 20 7 0.907681
w 21 20 -7 0.058793
w 21 -20 7 0.0400317
w 21 -20 -7 0.303463
w 22 21 8 0.736938
w 22 21 -8 0.774944
w 22 -21 8 0.297288
w 22 -21 -8 0.232316
w 23 22 9 0
w 23 22 -9 1
w 23 -22 9 0
w 23 -22 -9 1
w 24 23 10 0.840472
w 24 23 -10 0.822834
w 24 -23 10 0.416766
w 24 -23 -10 0.344017
w 25 24 11 0.359929
w 25 24 -11 0.83749
w 25 -24 11 0.580982
w 25 -24 -11 0.171356
w 26 25 12 0.836837
w 26 25 -12 0.0268171
w 26 -25 12 0.353001
w 26 -25 -12 0.110702
w 27 26 13 0.187303
w 27 26 -13 0.0183831
w 27 -26 13 0.558906
w 27 -26 -13 0.227335
w 28 27 14 0
w 28 27 -14 1
w 28 -27 14 0
w 28 -27 -14 1
w 29 15 1
w 29 -15 0
w 30 29 16 0.553981
w 30 29 -16 0.0305995
w 30 -29 16 0.439901
w 30 -29 -16 0.12026
w 31 30 17 0.262736
w 31 30 -17 0.537026
w 31 -30 17 0.215089
w 31 -30 -17 0.773802
w 32 31 18 0.0525788
w 32 31 -18 0.354784
w 32 -31 18 0.0683105
w 32 -31 -18 0.74874
w 33 32 19 1
w 33 32 -19 0
w 33 -32 19 0
w 33 -32 -19 0
w 34 33 20 0
w 34 33 -20 1
w 34 -33 20 1
w 34 -33 -20 0
w 35 34 21 1
w 35 34 -21 0
w 35 -34 21 1
w 35 -34 -21 0
w 36 35 22 0.231223
w 36 35 -22 0.111331
w 36 -35 22 0.401912
w 36 -35 -22 0.351483
w 37 36 23 0.664648
w 37 36 -23 0.888509
w 37 -36 23 0.197491
w 37 -36 -23 0.438449
w 38 37 24 0.250069
w 38 37 -24 0.793233
w 38 -37 24 0.853774
w 38 -37 -24 0.998809
w 39 38 25 0.948902
w 39 38 -25 0.10055
w 39 -38 25 0.287177
w 39 -38 -25 0.544143
w 40 39 26 1
w 40 39 -26 1
w 40 -39 26 0
w 40 -39 -26 0
w 41 40 27 0
w 41 40 -27 1
w 41 -40 27 1
w 41 -40 -27 0
w 42 41 28 1
w 42 41 -28 1
w 42 -41 28 0
w 42 -41 -28 1
w 43 29 0.164241
w 43 -29 0.566087
w 44 43 30 0.361731
w 44 43 -30 0.00453611
w 44 -43 30 0.320546
w 44 -43 -30 0.611801
w 45 44 31 0.17432
w 45 44 -31 0.61061
w 45 -44 31 0.782624
w 45 -44 -31 0.123222
w 46 45 32 0.0698007
w 46 45 -32 0.667365
w 46 -45 32 0.100754
w 46 -45 -32 0.677683
w 47 46 33 1
w 47 46 -33 0
w 47 -46 33 1
w 47 -46 -33 0
w 48 47 34 0.166823
w 48 47 -34 0.457222
w 48 -47 34 0.988403
w 48 -47 -34 0.66635
w 49 48 35 0.170242
w 49 48 -35 0.56779
w 49 -48 35 0.398886
w 49 -48 -35 0.334483
w 50 49 36 1
w 50 49 -36 1
w 50 -49 36 0
w 50 -49 -36 0
w 51 50 37 1
w 51 50 -37 1
w 51 -50 37 0
w 51 -50 -37 1
w 52 51 38 0.629785
w 52 51 -38 0.788607
w 52 -51 38 0.219422
w 52 -51 -38 0.730539
w 53 52 39 1
w 53 52 -39 1
w 53 -52 39 0
w 53 -52 -39 0
w 54 53 40 0
w 54 53 -40 0
w 54 -53 40 1
w 54 -53 -40 1
w 55 54 41 1
w 55 54 -41 1
w 55 -54 41 0
w 55 -54 -41 1
w 56 55 42 0.749222
w 56 55 -42 0.673011
w 56 -55 42 0.501646
w 56 -55 -42 0.887635
w 57 43 0.809661
w 57 -43 0.823818
w 58 57 44 0
w 58 57 -44 0
w 58 -57 44 0
w 58 -57 -44 1
w 59 58 45 1
w 59 58 -45 1
w 59 -58 45 0
w 59 -58 -45 0
w 60 59 46 0.191929
w 60 59 -46 0.927297
w 60 -59 46 0.956498
w 60 -59 -46 0.504232
w 61 60 47 1
w 61 60 -47 0
w 61 -60 47 1
w 61 -60 -47 0
w 62 61 48 1
w 62 61 -48 0
w 62 -61 48 0
w 62 -61 -48 1
w 63 62 49 0
w 63 62 -49 1
w 63 -62 49 0
w 63 -62 -49 0
w 64 63 50 1
w 64 63 -50 1
w 64 -63 50 0
w 64 -63 -50 1
w 65 64 51 1
w 65 64 -51 0
w 65 -64 51 1
w 65 -64 -51 1
w 66 65 52 0
w 66 65 -52 1
w 66 -65 52 0
w 66 -65 -52 1
w 67 66 53 0.604554
w 67 66 -53 0.921461
w 67 -66 53 0.778803
w 67 -66 -53 0.880441
w 68 67 54 0.402343
w 68 67 -54 0.961759
w 68 -67 54 0.613491
w 68 -67 -54 0.698894
w 69 68 55 0.221752
w 69 68 -55 0.922969
w 69 -68 55 0.937347
w 69 -68 -55 0.653831
w 70 69 56 0.0582572
w 70 69 -56 0.628533
w 70 -69 56 0.992257
w 70 -69 -56 0.537238
w 71 57 0.608947
w 71 -57 0.104829
w 72 71 58 0
w 72 71 -58 1
w 72 -71 58 0
w 72 -71 -58 0
w 73 72 59 0.132919
w 73 72 -59 0.760856
w 73 -72 59 0.742566
w 73 -72 -59 0.737473
w 74 73 60 0.521369
w 74 73 -60 0.617913
w 74 -73 60 0.575183
w 74 -73 -60 0.923713
w 75 74 61 0.188674
w 75 74 -61 0.622606
w 75 -74 61 0.124394
w 75 -74 -61 0.410426
w 76 75 62 0.0617409
w 76 75 -62 0.0642567
w 76 -75 62 0.0489802
w 76 -75 -62 0.119998
w 77 76 63 0.0412371
w 77 76 -63 0.657236
w 77 -76 63 0.627256
w 77 -76 -63 0.650184
w 78 77 64 0.665176
w 78 77 -64 0.588736
w 78 -77 64 0.26036
w 78 -77 -64 0.998479
w 79 78 65 0.10862
w 79 78 -65 0.131398
w 79 -78 65 0.545046
w 79 -78 -65 0.851186
w 80 79 66 0.227363
w 80 79 -66 0.372556
w 80 -79 66 0.486784
w 80 -79 -66 0.802546
w 81 80 67 1
w 81 80 -67 1
w 81 -80 67 1
w 81 -80 -67 0
w 82 81 68 0
w 82 81 -68 1
w 82 -81 68 1
w 82 -81 -68 1
w 83 82 69 0
w 83 82 -69 0
w 83 -82 69 0
w 83 -82 -69 1
w 84 83 70 1
w 84 83 -70 1
w 84 -83 70 0
w 84 -83 -70 1
w 85 71 1
w 85 -71 0
w 86 85 72 1
w 86 85 -72 0
w 86 -85 72 0
w 86 -85 -72 0
w 87 86 73 1
w 87 86 -73 0
w 87 -86 73 1
w 87 -86 -73 1
w 88 87 74 0
w 88 87 -74 1
w 88 -87 74 1
w 88 -87 -74 1
w 89 88 75 0
w 89 88 -75 1
w 89 -88 75 0
w 89 -88 -75 1
w 90 89 76 0
w 90 89 -76 1
w 90 -89 76 1
w 90 -89 -76 0
w 91 90 77 0.407267
w 91 90 -77 0.130744
w 91 -90 77 0.693108
w 91 -90 -77 0.85687
w 92 91 78 0.853979
w 92 91 -78 0.437872
w 92 -91 78 0.831343
w 92 -91 -78 0.866036
w 93 92 79 0.181529
w 93 92 -79 0.250648
w 93 -92 79 0.824401
w 93 -92 -79 0.334262
w 94 93 80 0.827514
w 94 93 -80 0.478214
w 94 -93 80 0.531285
w 94 -93 -80 0.0214769
w 95 94 81 0
w 95 94 -81 0
w 95 -94 81 1
w 95 -94 -81 0
w 96 95 82 1
w 96 95 -82 0
w 96 -95 82 0
w 96 -95 -82 0
w 97 96 83 0.777
w 97 96 -83 0.568918
w 97 -96 83 0.773331
w 97 -96 -83 0.470108
w 98 97 84 0
w 98 97 -84 0
w 98 -97 84 0
w 98 -97 -84 1
w 99 85 0.494724
w 99 -85 0.440771
w 100 99 86 0.828986
w 100 99 -86 0.3723
w 100 -99 86 0.403321
w 100 -99 -86 0.307201
w 101 100 87 0.424798
w 101 100 -87 0.331014
w 101 -100 87 0.499077
w 101 -100 -87 0.892828
w 102 101 88 0
w 102 101 -88 0
w 102 -101 88 1
w 102 -101 -88 0
w 103 102 89 1
w 103 102 -89 0
w 103 -102 89 0
w 103 -102 -89 0
w 104 103 90 0
w 104 103 -90 1
w 104 -103 90 1
w 104 -103 -90 0
w 105 104 91 0.188604
w 105 104 -91 0.0774616
w 105 -104 91 0.343261
w 105 -104 -91 0.683328
w 106 105 92 0.919067
w 106 105 -92 0.512314
w 106 -105 92 0.890533
w 106 -105 -92 0.322388
w 107 106 93 0.794118
w 107 106 -93 0.747186
w 107 -106 93 0.150529
w 107 -106 -93 0.293196
w 108 107 94 0.516857
w 108 107 -94 0.965401
w 108 -107 94 0.820016
w 108 -107 -94 0.0886946
w 109 108 95 0.13616
w 109 108 -95 0.822183
w 109 -108 95 0.563264
w 109 -108 -95 0.229304
w 110 109 96 1
w 110 109 -96 0
w 110 -109 96 0
w 110 -109 -96 1
w 111 110 97 0.44464
w 111 110 -97 0.0208319
w 111 -110 97 0.757358
w 111 -110 -97 0.7879
w 112 111 98 0.27559
w 112 111 -98 0.706967
w 112 -111 98 0.216474
w 112 -111 -98 0.166123
w 113 99 0
w 113 -99 1
w 114 113 100 0.776541
w 114 113 -100 0.186518
w 114 -113 100 0.253437
w 114 -113 -100 0.416555
w 115 114 101 0.218838
w 115 114 -101 0.236571
w 115 -114 101 0.79207
w 115 -114 -101 0.161877
w 116 115 102 0
w 116 115 -102 1
w 116 -115 102 0
w 116 -115 -102 1
w 117 116 103 0.394593
w 117 116 -103 0.591627
w 117 -116 103 0.514189
w 117 -116 -103 0.0744889
w 118 117 104 1
w 118 117 -104 1
w 118 -117 104 0
w 118 -117 -104 0
w 119 118 105 0
w 119 118 -105 0
w 119 -118 105 1
w 119 -118 -105 0
w 120 119 106 0
w 120 119 -106 1
w 120 -119 106 1
w 120 -119 -106 1
w 121 120 107 0
w 121 120 -107 0
w 121 -120 107 0
w 121 -120 -107 1
w 122 121 108 0
w 122 121 -108 0
w 122 -121 108 0
w 122 -121 -108 1
w 123 122 109 1
w 123 122 -109 0
w 123 -122 109 1
w 123 -122 -109 1
w 124 123 110 0
w 124 123 -110 0
w 124 -123 110 0
w 124 -123 -110 1
w 125 124 111 0
w 125 124 -111 1
w 125 -124 111 0
w 125 -124 -111 0
w 126 125 112 0.880649
w 126 125 -112 0.407413
w 126 -125 112 0.188901
w 126 -125 -112 0.367886
w 127 113 1
w 127 -113 0
w 128 127 114 0
w 128 127 -114 1
w 128 -127 114 1
w 128 -127 -114 0
w 129 128 115 0.535008
w 129 128 -115 0.478965
w 129 -128 115 0.0586034
w 129 -128 -115 0.810061
w 130 129 116 0.176931
w 130 129 -116 0.599302
w 130 -129 116 0.272487
w 130 -129 -116 0.331525
w 131 130 117 0.538339
w 131 130 -117 0.310286
w 131 -130 117 0.487006
w 131 -130 -117 0.911627
w 132 131 118 0.506102
w 132 131 -118 0.558475
w 132 -131 118 0.890563
w 132 -131 -118 0.0168424
w 133 132 119 0
w 133 132 -119 1
w 133 -132 119 0
w 133 -132 -119 0
w 134 133 120 0.880972
w 134 133 -120 0.610129
w 134 -133 120 0.520224
w 134 -133 -120 0.822887
w 135 134 121 1
w 135 134 -121 0
w 135 -134 121 1
w 135 -134 -121 0
w 136 135 122 1
w 136 135 -122 0
w 136 -135 122 0
w 136 -135 -122 0
w 137 136 123 0.690821
w 137 136 -123 0.252442
w 137 -136 123 0.929472
w 137 -136 -123 0.177827
w 138 137 124 1
w 138 137 -124 0
w 138 -137 124 1
w 138 -137 -124 1
w 139 138 125 0.161668
w 139 138 -125 0.938192
w 139 -138 125 0.906516
w 139 -138 -125 0.968678
w 140 139 126 0
w 140 139 -126 1
w 140 -139 126 1
w 140 -139 -126 0
w 141 127 0.131465
w 141 -127 0.255047
w 142 141 128 0
w 142 141 -128 1
w 142 -141 128 0
w 142 -141 -128 1
w 143 142 129 0.965645
w 143 142 -129 0.890322
w 143 -142 129 0.272625
w 143 -142 -129 0.656467
w 144 143 130 0
w 144 143 -130 1
w 144 -143 130 1
w 144 -143 -130 1
w 145 144 131 0.0293777
w 145 144 -131 0.591964
w 145 -144 131 0.218996
w 145 -144 -131 0.191045
w 146 145 132 0.125512
w 146 145 -132 0.159723
w 146 -145 132 0.927321
w 146 -145 -132 0.808208
w 147 146 133 0
w 147 146 -133 1
w 147 -146 133 1
w 147 -146 -133 0
w 148 147 134 0
w 148 147 -134 0
w 148 -147 134 0
w 148 -147 -134 1
w 149 148 135 0.285391
w 149 148 -135 0.876375
w 149 -148 135 0.867221
w 149 -148 -135 0.558016
w 150 149 136 0.00998548
w 150 149 -136 0.760113
w 150 -149 136 0.367136
w 150 -149 -136 0.316819
w 151 150 137 0.88536
w 151 150 -137 0.346197
w 151 -150 137 0.303825
w 151 -150 -137 0.104356
w 152 151 138 0.83398
w 152 151 -138 0.229867
w 152 -151 138 0.696965
w 152 -151 -138 0.761301
w 153 152 139 1
w 153 152 -139 0
w 153 -152 139 0
w 153 -152 -139 0
w 154 153 140 0.31538
w 154 153 -140 0.10059
w 154 -153 140 0.56268
w 154 -153 -140 0.947333
w 155 141 0
w 155 -141 1
w 156 155 142 0
w 156 155 -142 0
w 156 -155 142 0
w 156 -155 -142 1
w 157 156 143 1
w 157 156 -143 1
w 157 -156 143 1
w 157 -156 -143 0
w 158 157 144 0
w 158 157 -144 1
w 158 -157 144 0
w 158 -157 -144 0
w 159 158 145 1
w 159 158 -145 1
w 159 -158 145 0
w 159 -158 -145 0
w 160 159 146 0.094535
w 160 159 -146 0.408596
w 160 -159 146 0.619734
w 160 -159 -146 0.409915
w 161 160 147 0.182414
w 161 160 -147 0.357248
w 161 -160 147 0.520507
w 161 -160 -147 0.721994
w 162 161 148 0.408202
w 162 161 -148 0.128795
w 162 -161 148 0.380713
w 162 -161 -148 0.828739
w 163 162 149 0.931566
w 163 162 -149 0.616413
w 163 -162 149 0.279186
w 163 -162 -149 0.194281
w 164 163 150 1
w 164 163 -150 1
w 164 -163 150 1
w 164 -163 -150 0
w 165 164 151 0
w 165 164 -151 1
w 165 -164 151 0
w 165 -164 -151 0
w 166 165 152 0
w 166 165 -152 0
w 166 -165 152 1
w 166 -165 -152 1
w 167 166 153 0.228172
w 167 166 -153 0.983044
w 167 -166 153 0.981119
w 167 -166 -153 0.748679
w 168 167 154 0.571092
w 168 167 -154 0.156881
w 168 -167 154 0.833832
w 168 -167 -154 0.951805
w 169 155 0.379413
w 169 -155 0.883372
w 170 169 156 0.6586
w 170 169 -156 0.0776525
w 170 -169 156 0.891478
w 170 -169 -156 0.0175881
w 171 170 157 0.958313
w 171 170 -157 0.993621
w 171 -170 157 0.999811
w 171 -170 -157 0.0324031
w 172 171 158 1
w 172 171 -158 1
w 172 -171 158 0
w 172 -171 -158 1
w 173 172 159 0
w 173 172 -159 1
w 173 -172 159 0
w 173 -172 -159 1
w 174 173 160 0
w 174 173 -160 1
w 174 -173 160 0
w 174 -173 -160 1
w 175 174 161 1
w 175 174 -161 1
w 175 -174 161 0
w 175 -174 -161 0
w 176 175 162 0
w 176 175 -162 1
w 176 -175 162 0
w 176 -175 -162 0
w 177 176 163 0.293166
w 177 176 -163 0.884215
w 177 -176 163 0.875629
w 177 -176 -163 0.292977
w 178 177 164 0.159292
w 178 177 -164 0.615947
w 178 -177 164 0.0684426
w 178 -177 -164 0.753345
w 179 178 165 1
w 179 178 -165 0
w 179 -178 165 1
w 179 -178 -165 1
w 180 179 166 0.711843
w 180 179 -166 0.394648
w 180 -179 166 0.897486
w 180 -179 -166 0.704418
w 181 180 167 0.344258
w 181 180 -167 0.530825
w 181 -180 167 0.43018
w 181 -180 -167 0.776649
w 182 181 168 0.807221
w 182 181 -168 0.811073
w 182 -181 168 0.601065
w 182 -181 -168 0.261914
w 183 169 0.483072
w 183 -169 0.55508
w 184 183 170 0.358701
w 184 183 -170 0.848057
w 184 -183 170 0.537808
w 184 -183 -170 0.517993
w 185 184 171 0
w 185 184 -171 1
w 185 -184 171 0
w 185 -184 -171 1
w 186 185 172 1
w 186 185 -172 0
w 186 -185 172 0
w 186 -185 -172 1
w 187 186 173 0.842805
w 187 186 -173 0.42438
w 187 -186 173 0.79551
w 187 -186 -173 0.187063
w 188 187 174 0.22569
w 188 187 -174 0.963712
w 188 -187 174 0.69185
w 188 -187 -174 0.0329114
w 189 188 175 0.292914
w 189 188 -175 0.294826
w 189 -188 175 0.51176
w 189 -188 -175 0.775987
w 190 189 176 0.132951
w 190 189 -176 0.134688
w 190 -189 176 0.697962
w 190 -189 -176 0.670759
w 191 190 177 0.161966
w 191 190 -177 0.27701
w 191 -190 177 0.924019
w 191 -190 -177 0.74578
w 192 191 178 1
w 192 191 -178 0
w 192 -191 178 0
w 192 -191 -178 0
w 193 192 179 0.0498666
w 193 192 -179 0.898242
w 193 -192 179 0.436343
w 193 -192 -179 0.23693
w 194 193 180 0.662034
w 194 193 -180 0.200642
w 194 -193 180 0.545297
w 194 -193 -180 0.694945
w 195 194 181 0.838211
w 195 194 -181 0.989771
w 195 -194 181 0.487187
w 195 -194 -181 0.614198
w 196 195 182 0.620137
w 196 195 -182 0.748886
w 196 -195 182 0.537639
w 196 -195 -182 0.290896